c Mix of unit, binary, ternary, and quaternary clauses.
c Exercises both branches of the initializer together.
c After init expect:
c   clause_watch_positions = [{0,-1}, {0,1}, {0,1}, {0,1}, {0,1}]
c   unit_propagation_queue = {1}
c   watches_pos[2] = {1,3}       (clauses 1 and 3)
c   watches_pos[3] = {3}         (clause 3 watches +3 at position 1? No — pos 0 vs 1 below)
c   (work out the rest by hand as a sanity check while you step through)
p cnf 4 5
1 0
2 3 0
-1 -2 4 0
2 3 4 0
-3 -4 0